NAME : MM3_depots
COMMENT : Instance 3 in MD algorithm. Coordinates of depots and vhcl speeds given.
TYPE : TSP
DIMENSION : 5
EDGE_WEIGHT_TYPE : ATT
NODE_COORD_SECTION
201 51.7495 16.6061 1
202 5.9168 24.4048 1
203 45.3517 22.9581 1
204 71.5177 97.2638 1
205 16.3892 54.9787 1
EOF
